c instance by G2
c solution = 0010101
c Known solution cost is 527 
p cnf 7 30
w 85 27 89 98 79 67 82
5 2 -4 0
-3 -5 -4 0
5 -2 -7 0
5 7 4 0
3 -1 7 0
-6 4 2 0
-4 -7 -3 0
7 -1 4 0
2 5 1 0
-1 5 7 0
2 -4 -7 0
-7 3 1 0
2 4 3 0
2 1 3 0
1 -2 3 0
7 2 -5 0
-6 -3 -7 0
4 -3 -6 0
-3 -7 -6 0
4 -6 1 0
4 -1 6 0
-5 -6 7 0
5 -7 2 0
6 7 -1 0
2 -5 -6 0
-2 -4 1 0
1 -2 4 0
6 -2 1 0
-7 -3 -6 0
-2 -1 3 0
